
Gurobi 11.0.3 (linux64) logging started Mon Aug 25 16:16:59 2025

Set parameter LogFile to value "/home/yihong/Coding/OR_SUC/SUC_epstheta_results_bigM100000_thread4/case24_ieee_rts_theta0.001_epsilon0.2_gurobi_seed20000_num_gen100_N_WDR50_load_scaling_factor1_ori_eps_T2quadra_cost_bc1.03.txt"
Set parameter TimeLimit to value 3600
Gurobi Optimizer version 11.0.3 build v11.0.3rc0 (linux64 - "Ubuntu 20.04.6 LTS")

CPU model: AMD EPYC 7532 32-Core Processor, instruction set [SSE2|AVX|AVX2]
Thread count: 64 physical cores, 128 logical processors, using up to 4 threads

Academic license 2399124 - for non-commercial use only - registered to yi___@ed.ac.uk
Optimize a model with 5070 rows, 2531 columns and 192230 nonzeros
Model fingerprint: 0xa0960ee9
Model has 200 quadratic constraints
Variable types: 2331 continuous, 200 integer (200 binary)
Coefficient statistics:
  Matrix range     [3e-04, 3e+03]
  QMatrix range    [2e-03, 8e-03]
  QLMatrix range   [2e-02, 6e+01]
  Objective range  [1e+00, 1e+00]
  Bounds range     [1e+00, 1e+00]
  RHS range        [5e-02, 9e+03]
Presolve removed 4359 rows and 1228 columns
Presolve time: 0.04s
Presolved: 711 rows, 1303 columns, 5391 nonzeros
Presolved model has 200 quadratic constraint(s)
Variable types: 1103 continuous, 200 integer (200 binary)

Root relaxation: objective 1.813408e+03, 514 iterations, 0.00 seconds (0.01 work units)

    Nodes    |    Current Node    |     Objective Bounds      |     Work
 Expl Unexpl |  Obj  Depth IntInf | Incumbent    BestBd   Gap | It/Node Time

     0     0 1813.40784    0    4          - 1813.40784      -     -    0s
     0     0 35899.4921    0   60          - 35899.4921      -     -    0s
     0     0 62060.1478    0   24          - 62060.1478      -     -    0s
     0     0 62071.0834    0   10          - 62071.0834      -     -    0s
     0     0 62071.1965    0   12          - 62071.1965      -     -    0s
     0     0 62071.2007    0   12          - 62071.2007      -     -    0s
H    0     0                    62071.448558 62071.2007  0.00%     -    0s

Cutting planes:
  Gomory: 17
  Implied bound: 40
  MIR: 13
  Flow cover: 74

Explored 1 nodes (1403 simplex iterations) in 0.20 seconds (0.15 work units)
Thread count was 4 (of 128 available processors)

Solution count 1: 62071.4 

Optimal solution found (tolerance 1.00e-03)
Warning: max constraint violation (1.3297e-09) exceeds tolerance
Best objective 6.207144855801e+04, best bound 6.207120065933e+04, gap 0.0004%

Gurobi 11.0.3 (linux64) logging started Mon Aug 25 16:16:59 2025

Set parameter LogFile to value "/home/yihong/Coding/OR_SUC/SUC_epstheta_results_bigM100000_thread4/case24_ieee_rts_theta0.001_epsilon0.2_gurobi_seed20000_num_gen100_N_WDR50_load_scaling_factor1_ori_eps_T2quadra_cost_bc1.03.txt"
Set parameter TimeLimit to value 3600
Gurobi Optimizer version 11.0.3 build v11.0.3rc0 (linux64 - "Ubuntu 20.04.6 LTS")

CPU model: AMD EPYC 7532 32-Core Processor, instruction set [SSE2|AVX|AVX2]
Thread count: 64 physical cores, 128 logical processors, using up to 4 threads

Academic license 2399124 - for non-commercial use only - registered to yi___@ed.ac.uk
Optimize a model with 11154 rows, 2532 columns and 850651 nonzeros
Model fingerprint: 0xbf9ad5b8
Model has 201 quadratic constraints
Variable types: 2332 continuous, 200 integer (200 binary)
Coefficient statistics:
  Matrix range     [3e-04, 3e+03]
  QMatrix range    [2e-03, 5e+01]
  QLMatrix range   [2e-02, 6e+01]
  Objective range  [1e+00, 1e+00]
  Bounds range     [2e-01, 1e+00]
  RHS range        [9e-02, 6e+04]
  QRHS range       [5e-02, 5e-02]
Presolve removed 3406 rows and 1121 columns
Presolve time: 0.65s
Presolved: 7950 rows, 1612 columns, 171591 nonzeros
Presolved model has 200 quadratic constraint(s)
Presolved model has 1 bilinear constraint(s)
Warning: Model contains variables with very large bounds participating
         in product terms.
         Presolve was not able to compute smaller bounds for these variables.
         Consider bounding these variables or reformulating the model.


Solving non-convex MIQCP

Variable types: 1408 continuous, 204 integer (204 binary)

Root relaxation: objective 0.000000e+00, 902 iterations, 0.09 seconds (0.26 work units)

    Nodes    |    Current Node    |     Objective Bounds      |     Work
 Expl Unexpl |  Obj  Depth IntInf | Incumbent    BestBd   Gap | It/Node Time

     0     0    0.00000    0    7          -    0.00000      -     -    1s
     0     0    0.00000    0    3          -    0.00000      -     -    1s
     0     0    0.00000    0    3          -    0.00000      -     -    2s
     0     0    0.00000    0    3          -    0.00000      -     -    2s
     0     0    0.00000    0    3          -    0.00000      -     -    2s
     0     0    0.00000    0    3          -    0.00000      -     -    2s
H    0     0                       0.0376337    0.00000   100%     -   21s
     0     2    0.00000    0    1    0.03763    0.00000   100%     -   22s
*    9     4               1       0.0188169    0.00000   100%  16.8   23s
*   12     3               3       0.0094084    0.00000   100%  13.2   23s
*   16     3               4       0.0075268    0.00000   100%  11.3   23s
*   19     3               5       0.0053763    0.00000   100%  11.2   23s
*   24     2               8       0.0016363    0.00000   100%  11.5   23s
*   30     4              10       0.0007101    0.00000   100%  13.7   23s
*   41     7              13       0.0003550    0.00000   100%  34.6   24s
*   44     7              13       0.0003444    0.00000   100%  34.7   24s
H   90    44                       0.0003167    0.00000   100%  52.3   25s
H   91    44                       0.0003060    0.00000   100%  51.7   25s
H  128    72                       0.0003060    0.00000   100%  44.1   25s
*  569   248              46       0.0001785    0.00005  74.1%  29.0   28s
*  572   248              47       0.0001785    0.00005  74.1%  28.8   28s
   817   336    0.00017   38    2    0.00018    0.00014  22.0%  21.6   30s
   819   337    0.00017   30    4    0.00018    0.00016  11.4%  21.6   35s
   824   341    0.00017   30    6    0.00018    0.00016  11.2%  21.5   41s
H  824   323                       0.0001610    0.00016  1.61%  21.5   41s
H  832   312                       0.0001605    0.00016  0.05%  23.1   42s

Cutting planes:
  Implied bound: 3
  MIR: 7
  Flow cover: 2

Explored 832 nodes (22471 simplex iterations) in 42.45 seconds (46.18 work units)
Thread count was 4 (of 128 available processors)

Solution count 10: 0.000160534 0.000160989 0.000178463 ... 0.000710072

Optimal solution found (tolerance 1.00e-03)
Best objective 1.605338227088e-04, best bound 1.604596492565e-04, gap 0.0462%
